************************************************************************
file with basedata            : md364_.bas
initial value random generator: 2142300525
************************************************************************
projects                      :  1
jobs (incl. supersource/sink ):  22
horizon                       :  163
RESOURCES
  - renewable                 :  2   R
  - nonrenewable              :  2   N
  - doubly constrained        :  0   D
************************************************************************
PROJECT INFORMATION:
pronr.  #jobs rel.date duedate tardcost  MPM-Time
    1     20      0       23        8       23
************************************************************************
PRECEDENCE RELATIONS:
jobnr.    #modes  #successors   successors
   1        1          3           2   3   4
   2        3          3          13  15  16
   3        3          3           8   9  11
   4        3          3           5   7  18
   5        3          3           6   8  12
   6        3          3          11  13  14
   7        3          2          11  19
   8        3          1          10
   9        3          3          13  17  18
  10        3          1          14
  11        3          1          15
  12        3          1          15
  13        3          2          20  21
  14        3          1          16
  15        3          1          20
  16        3          1          17
  17        3          2          19  21
  18        3          3          19  20  21
  19        3          1          22
  20        3          1          22
  21        3          1          22
  22        1          0        
************************************************************************
REQUESTS/DURATIONS:
jobnr. mode duration  R 1  R 2  N 1  N 2
------------------------------------------------------------------------
  1      1     0       0    0    0    0
  2      1     4       0    9    8    2
         2     7       3    0    7    2
         3     9       0    9    5    1
  3      1     3       9    0    7    5
         2     6       0    9    7    5
         3     6       6    0    6    4
  4      1     3       8    0    7    5
         2     4       8    0    6    3
         3     9       6    0    3    1
  5      1     3       0    6    9   10
         2     3       0    8    7   10
         3     6       3    0    6   10
  6      1     2       0    4    4    9
         2     8       7    0    3    6
         3     9       5    0    3    5
  7      1     3       3    0    9    5
         2     6       3    0    6    4
         3     7       0    8    6    4
  8      1     2       0    4    8   10
         2     6       0    4    7    8
         3     7       4    0    7    6
  9      1     2       5    0    6   10
         2     2       0    7    9   10
         3    10       0    7    6   10
 10      1     1       0    6    9    6
         2     4       0    3    8    5
         3    10       8    0    8    5
 11      1     3       4    0    3    7
         2     8       0    5    1    7
         3     8       3    0    2    7
 12      1     1       0    8    2    4
         2     5       4    0    2    4
         3    10       0    7    2    3
 13      1     2       9    0    6   10
         2     4       0    9    5   10
         3    10       0    8    5    9
 14      1     1       0    6    8    7
         2     9       4    0    6    6
         3    10       0    6    5    4
 15      1     3       5    0   10    9
         2     7       0    6    9    7
         3     8       0    1    7    6
 16      1     4       0    4    6    3
         2     6      10    0    1    3
         3     6       0    2    3    3
 17      1     3       0   10    9    5
         2     4       0   10    6    4
         3     6       4    0    5    2
 18      1     3       0    7    3   10
         2     4       0    6    2    7
         3     8       9    0    2    7
 19      1     1       4    0    5    8
         2     7       0    8    5    6
         3     7       0    9    4    5
 20      1     9       7    0    2    5
         2    10       0    7    2    4
         3    10       6    0    2    4
 21      1     2       0    8    9    5
         2     2       0    5    9    6
         3     7       2    0    5    5
 22      1     0       0    0    0    0
************************************************************************
RESOURCEAVAILABILITIES:
  R 1  R 2  N 1  N 2
   24   34  111  119
************************************************************************
MAXIMAL LAGS:
from  to  type  delay
    1   22   ES      0
    1    2   ES      0
    2   22   ES      0
    1    3   ES      0
    3   22   ES      0
    1    4   ES      0
    4   22   ES      0
    1    5   ES      0
    5   22   ES      0
    1    6   ES      0
    6   22   ES      0
    1    7   ES      0
    7   22   ES      0
    1    8   ES      0
    8   22   ES      0
    1    9   ES      0
    9   22   ES      0
    1   10   ES      0
   10   22   ES      0
    1   11   ES      0
   11   22   ES      0
    1   12   ES      0
   12   22   ES      0
    1   13   ES      0
   13   22   ES      0
    1   14   ES      0
   14   22   ES      0
    1   15   ES      0
   15   22   ES      0
    1   16   ES      0
   16   22   ES      0
    1   17   ES      0
   17   22   ES      0
    1   18   ES      0
   18   22   ES      0
    1   19   ES      0
   19   22   ES      0
    1   20   ES      0
   20   22   ES      0
    1   21   ES      0
   21   22   ES      0
    1   22   ES      0
    2   13   SS     -2
    2   13   SE      7
    2   13   ES     11
    2   13   EE    -12
    2   15   SS      6
    2   15   SE      3
    2   15   ES     -7
    2   15   EE     -8
    2   16   SS      4
    2   16   SE     -2
    2   16   ES      5
    2   16   EE     10
    3    8   SS     -8
    3    8   SE      9
    3    8   ES     -1
    3    8   EE      5
    3    9   SS     -2
    3    9   SE     11
    3    9   ES     -4
    3    9   EE     -1
    3   11   SS     -2
    3   11   SE     -9
    3   11   ES     -6
    3   11   EE      7
    4    5   SS     12
    4    5   SE     -9
    4    5   ES      6
    4    5   EE      1
    4    7   SS    -12
    4    7   SE     -6
    4    7   ES     -3
    4    7   EE      4
    4   18   SS     -7
    4   18   SE     12
    4   18   ES     12
    4   18   EE     -5
    5    6   SS      1
    5    6   SE      3
    5    6   ES      5
    5    6   EE      5
    5    8   SS     -6
    5    8   SE      5
    5    8   ES     10
    5    8   EE      3
    5   12   SS     -6
    5   12   SE      0
    5   12   ES      6
    5   12   EE      8
    6   11   SS     -6
    6   11   SE     -8
    6   11   ES     -5
    6   11   EE      5
    6   13   SS    -12
    6   13   SE    -11
    6   13   ES     -4
    6   13   EE     10
    6   14   SS     -5
    6   14   SE      1
    6   14   ES     -4
    6   14   EE      2
    7   11   SS     -1
    7   11   SE      4
    7   11   ES     -3
    7   11   EE      1
    7   19   SS      1
    7   19   SE     -4
    7   19   ES      4
    7   19   EE      1
    8   10   SS     11
    8   10   SE      3
    8   10   ES     10
    8   10   EE     -4
    9   13   SS     -9
    9   13   SE      0
    9   13   ES     -5
    9   13   EE      3
    9   17   SS     12
    9   17   SE    -10
    9   17   ES     -8
    9   17   EE    -11
    9   18   SS      0
    9   18   SE     -5
    9   18   ES     -9
    9   18   EE      2
   10   14   SS     -2
   10   14   SE     -1
   10   14   ES     -7
   10   14   EE      6
   11   15   SS      2
   11   15   SE      3
   15   11   SE      0
   11   15   ES      0
   11   15   EE    -11
   12   15   SS     -9
   12   15   SE     -4
   12   15   ES     -1
   12   15   EE      4
   13   20   SS     -3
   13   20   SE    -12
   13   20   ES      4
   13   20   EE     -9
   13   21   SS     -9
   13   21   SE     11
   13   21   ES     12
   13   21   EE     -4
   14   16   SS     -4
   14   16   SE    -10
   14   16   ES     -1
   14   16   EE      2
   15   20   SS     -7
   15   20   SE      5
   15   20   ES     -9
   15   20   EE     10
   16   17   SS     -3
   16   17   SE     10
   16   17   ES     -6
   16   17   EE     10
   17   19   SS      0
   17   19   SE    -10
   17   19   ES    -10
   17   19   EE      1
   17   21   SS      5
   17   21   SE      0
   17   21   ES     -9
   17   21   EE     -9
   18   19   SS     -3
   18   19   SE      0
   18   19   ES    -12
   18   19   EE     -6
   18   20   SS      0
   18   20   SE    -10
   18   20   ES    -10
   18   20   EE      4
   18   21   SS      7
   18   21   SE     -7
   18   21   ES      0
   18   21   EE     11
************************************************************************
